50
13229

483 267
559 492
556 903
656 886
404 719
294 692
530 191
899 294
820 440
431 336
525 59
280 399
883 57
105 544
35 244
37 489
946 180
410 503
333 463
797 788
600 143
951 407
668 881
483 636
570 485
685 660
156 72
336 264
379 35
173 201
193 604
796 455
924 595
977 75
151 283
149 187
299 230
204 877
71 21
669 628
727 232
272 78
304 495
914 62
306 643
126 146
219 974
852 297
653 904
465 871
